(set-logic HORN)
(declare-fun state (Int (Array Int Int) Int Int Int Int (Array Int Int) Int Bool Bool Bool Bool Bool Bool Bool Int Int Int Int Int Int Int Int Int Int Int) Bool)
(assert (forall ((|F_0| Int) (|.y.11| (Array Int Int)) (|A_1| Int) (|B_0| Int) (|.y.12| Int) (|.y.13| Int) (|E_0| (Array Int Int)) (|H_0| Int) (|.loc.14| Bool) (|.loc.15| Bool) (|R_0| Bool) (|Q_1| Bool) (|M_3| Bool) (|O_1| Bool) (|A_4| Bool) (|P_1| Int) (|L_3| Int) (|S| Int) (|K_3| Int) (|F_3| Int) (|E_3| Int) (|H_3| Int) (|I_3| Int) (|J_3| Int) (|G_3| Int) (|C_3| Int) (|.loc.24| Bool) (|.y.18| Int) (|.y.16| Int) (|.y.19| Int) (|.y.23| Int) (|.y.22| (Array Int Int)) (|.loc.25| Bool) (|.y.21| Int) (|.y.20| Int) (|.y.17| (Array Int Int)) (|.xtv.1| Bool) (|.xtv.2| Bool) (|.xtv.3| Bool) (|.xtv.4| Bool) (|.xtv.5| Bool) (|.xtv.6| Int) (|.xtv.7| Int) (|.xtv.8| Int) (|.xtv.9| Int) (|.xtv.10| Int) (|.xtv.11| Int) (|.xtv.12| Int) (|.xtv.13| Int) (|.xtv.14| Int) (|.xtv.15| Int) (|.xtv.16| Int)) (=> (and .loc.14 (not .loc.15)) (state |F_0| |.y.11| |A_1| |B_0| |.y.12| |.y.13| |E_0| |H_0| |.loc.14| |.loc.15| |R_0| |Q_1| |M_3| |O_1| |A_4| |P_1| |L_3| |S| |K_3| |F_3| |E_3| |H_3| |I_3| |J_3| |G_3| |C_3|))))
(assert (forall ((|F_0| Int) (|.y.11| (Array Int Int)) (|A_1| Int) (|B_0| Int) (|.y.12| Int) (|.y.13| Int) (|E_0| (Array Int Int)) (|H_0| Int) (|.loc.14| Bool) (|.loc.15| Bool) (|R_0| Bool) (|Q_1| Bool) (|M_3| Bool) (|O_1| Bool) (|A_4| Bool) (|P_1| Int) (|L_3| Int) (|S| Int) (|K_3| Int) (|F_3| Int) (|E_3| Int) (|H_3| Int) (|I_3| Int) (|J_3| Int) (|G_3| Int) (|C_3| Int) (|.loc.24| Bool) (|.y.18| Int) (|.y.16| Int) (|.y.19| Int) (|.y.23| Int) (|.y.22| (Array Int Int)) (|.loc.25| Bool) (|.y.21| Int) (|.y.20| Int) (|.y.17| (Array Int Int)) (|.xtv.1| Bool) (|.xtv.2| Bool) (|.xtv.3| Bool) (|.xtv.4| Bool) (|.xtv.5| Bool) (|.xtv.6| Int) (|.xtv.7| Int) (|.xtv.8| Int) (|.xtv.9| Int) (|.xtv.10| Int) (|.xtv.11| Int) (|.xtv.12| Int) (|.xtv.13| Int) (|.xtv.14| Int) (|.xtv.15| Int) (|.xtv.16| Int)) (=> (and (state |F_0| |.y.11| |A_1| |B_0| |.y.12| |.y.13| |E_0| |H_0| |.loc.14| |.loc.15| |R_0| |Q_1| |M_3| |O_1| |A_4| |P_1| |L_3| |S| |K_3| |F_3| |E_3| |H_3| |I_3| |J_3| |G_3| |C_3|) (let ((.def_36 (not .loc.15))) (let ((.def_39 (= B_0 0))) (let ((.def_54 (= F_0 0))) (let ((.def_67 (not .loc.24))) (let ((.def_85 (<= B_0 0))) (let ((.def_86 (not Q_1))) (let ((.def_87 (or .def_85 .def_86))) (let ((.def_91 (not O_1))) (let ((.def_101 (not R_0))) (let ((.def_102 (or .def_86 .def_101))) (let ((.def_115 (not .def_85))) (let ((.def_185 (not .loc.25))) (let ((.def_211 (not .loc.14))) (or (or (and (or (and (or (and (and .loc.15 (and (not .def_39) (= (ite (<= (select E_0 F_0) H_0) 1 0) 0))) .loc.24) (and (= .y.12 .y.18) (and (= B_0 .y.16) (and (not .def_54) (and (= (+ .y.13 (* (- 1) .y.19)) (- 1)) (and (= A_1 .y.23) (and (= .y.11 .y.22) (and .def_36 .def_67)))))))) .loc.25) (and (= .y.13 .y.21) (and (= .y.12 .y.20) (and (= B_0 .y.19) (and (or (not (<= E_3 0)) .def_87) (and (or (not (<= K_3 0)) (or .def_85 .def_91)) (and (or .def_87 (not (<= H_3 0))) (and (or (not A_4) (or .def_54 .def_86)) (and (or (= A_1 S) .def_102) (and (or .def_91 (= P_1 .y.18)) (and (or .def_91 (= (+ B_0 (+ (* (- 1) K_3) (* 4 J_3))) 0)) (and (or .def_91 .def_115) (and (or .def_86 (= M_3 (not (<= A_1 I_3)))) (and (or .def_86 (= .y.12 C_3)) (and (or .def_86 (= (+ B_0 (+ (* (- 1) E_3) (* 4 J_3))) 0)) (and (or .def_86 (= (+ F_0 (+ .y.13 (* (- 1) G_3))) 0)) (and (or .def_86 (= (+ B_0 (+ (* (- 1) H_3) (* 4 G_3))) 0)) (and (or .def_86 (= (+ F_0 (+ .y.13 (* (- 1) J_3))) 0)) (and (or .def_86 .def_115) (and (= (+ F_0 (* (- 1) .y.16)) (- 1)) (and (or .def_86 (= I_3 (select .y.17 H_3))) (and (or .def_86 (= .y.17 (store .y.11 E_3 F_3))) (and (or .def_91 (= L_3 (select .y.17 K_3))) (and (or .def_102 (= S .y.18)) (and (and .def_36 (and .def_67 (and (or O_1 (and R_0 Q_1)) (and (or .def_91 (= P_1 L_3)) (and (or Q_1 .def_101) (and (or .def_86 (and Q_1 A_4)) (and (or .def_91 (and Q_1 O_1)) (and (or (or .def_86 .def_91) (not M_3)) (or M_3 .def_102))))))))) .def_185))))))))))))))))))))))))) .def_211) (and (= F_0 .y.18) (and (not (<= .y.16 0)) (and (= .y.19 0) (and .def_36 (and .def_67 (and .loc.14 .loc.25))))))) (and (= B_0 .y.21) (and (= A_1 .y.20) (and (= F_0 .y.19) (and (= H_0 .y.18) (and (= .y.16 0) (and (= E_0 .y.17) (and .def_185 (and .def_67 (and .def_211 (and .loc.15 .def_39))))))))))))))))))))))))) (state |.y.16| |.y.17| |.y.18| |.y.19| |.y.20| |.y.21| |.y.22| |.y.23| |.loc.24| |.loc.25| |.xtv.1| |.xtv.2| |.xtv.3| |.xtv.4| |.xtv.5| |.xtv.6| |.xtv.7| |.xtv.8| |.xtv.9| |.xtv.10| |.xtv.11| |.xtv.12| |.xtv.13| |.xtv.14| |.xtv.15| |.xtv.16|))))
(assert (forall ((|F_0| Int) (|.y.11| (Array Int Int)) (|A_1| Int) (|B_0| Int) (|.y.12| Int) (|.y.13| Int) (|E_0| (Array Int Int)) (|H_0| Int) (|.loc.14| Bool) (|.loc.15| Bool) (|R_0| Bool) (|Q_1| Bool) (|M_3| Bool) (|O_1| Bool) (|A_4| Bool) (|P_1| Int) (|L_3| Int) (|S| Int) (|K_3| Int) (|F_3| Int) (|E_3| Int) (|H_3| Int) (|I_3| Int) (|J_3| Int) (|G_3| Int) (|C_3| Int) (|.loc.24| Bool) (|.y.18| Int) (|.y.16| Int) (|.y.19| Int) (|.y.23| Int) (|.y.22| (Array Int Int)) (|.loc.25| Bool) (|.y.21| Int) (|.y.20| Int) (|.y.17| (Array Int Int)) (|.xtv.1| Bool) (|.xtv.2| Bool) (|.xtv.3| Bool) (|.xtv.4| Bool) (|.xtv.5| Bool) (|.xtv.6| Int) (|.xtv.7| Int) (|.xtv.8| Int) (|.xtv.9| Int) (|.xtv.10| Int) (|.xtv.11| Int) (|.xtv.12| Int) (|.xtv.13| Int) (|.xtv.14| Int) (|.xtv.15| Int) (|.xtv.16| Int)) (=> (state |F_0| |.y.11| |A_1| |B_0| |.y.12| |.y.13| |E_0| |H_0| |.loc.14| |.loc.15| |R_0| |Q_1| |M_3| |O_1| |A_4| |P_1| |L_3| |S| |K_3| |F_3| |E_3| |H_3| |I_3| |J_3| |G_3| |C_3|) (not (and .loc.14 .loc.15)))))
(check-sat)
